c Medium WMC instance: 12 vars, 18 clauses, no weight overrides.
c All literal weights default to (0.5, 0.5), so WMC * 2^12 = #SAT.
c Cross-check #SAT with: ./cnfsample medium.txt 0
p cnf 12 18
1 -2 3 0
-1 4 -5 0
2 -3 6 0
-4 5 7 0
-6 -7 8 0
1 -8 9 0
-2 -9 10 0
3 -10 11 0
-5 -11 12 0
-1 -3 -12 0
2 4 -6 0
-7 9 -10 0
1 5 -8 0
-2 6 11 0
3 -4 -9 0
-1 7 12 0
8 -11 -12 0
-3 5 10 0
